nNurses = 184;
nHours = 36;
minHours = 5;
maxHours = 11;
maxConsec = 11;
maxPresence = 25;
demand = [27, 22, 17, 17, 21, 24, 27, 28, 23, 18, 14, 10, 7, 11, 12, 8, 8, 11, 11, 14, 9, 6, 9, 7, 11, 13, 11, 6, 7, 11, 6, 9, 10, 14, 11, 7];
